(set-logic QF_S)
(declare-fun var0 () String)
(assert (str.in.re var0 (re.++ (re.* (re.* (str.to.re "00"))) (re.++ (re.union (re.+ (str.to.re "1")) (re.+ (str.to.re "222"))) (re.++ (re.union (re.union (str.to.re "3") (str.to.re "4")) (re.union (str.to.re "55") (str.to.re "6"))) (re.++ (re.union (re.union (str.to.re "7") (str.to.re "88")) (re.union (str.to.re "999") (str.to.re "aaa"))) (re.++ (re.* (re.* (str.to.re "bbb"))) (re.++ (re.+ (re.* (str.to.re "ccc"))) (re.++ (re.union (re.union (str.to.re "d") (str.to.re "e")) (re.union (str.to.re "f") (str.to.re "g"))) (re.++ (re.+ (re.union (str.to.re "hh") (str.to.re "iii"))) (re.++ (re.+ (re.union (str.to.re "jjj") (str.to.re "kk"))) (re.++ (re.* (re.* (str.to.re "lll"))) (re.++ (re.+ (re.union (str.to.re "mm") (str.to.re "n"))) (re.++ (re.* (re.* (str.to.re "o"))) (re.++ (re.* (re.* (str.to.re "pp"))) (re.++ (re.union (re.* (str.to.re "q")) (re.* (str.to.re "rr"))) (re.++ (re.* (re.+ (str.to.re "ss"))) (re.++ (re.union (re.* (str.to.re "t")) (re.* (str.to.re "uu"))) (re.++ (re.+ (re.* (str.to.re "vv"))) (re.++ (re.* (re.* (str.to.re "w"))) (re.++ (re.union (re.* (str.to.re "xx")) (re.* (str.to.re "yyy"))) (re.++ (re.union (re.* (str.to.re "zz")) (re.* (str.to.re "A"))) (re.++ (re.+ (re.* (str.to.re "BBB"))) (re.++ (re.* (re.union (str.to.re "CCC") (str.to.re "D"))) (re.++ (re.union (re.union (str.to.re "EEE") (str.to.re "F")) (re.union (str.to.re "GGG") (str.to.re "H"))) (re.++ (re.union (re.+ (str.to.re "III")) (re.+ (str.to.re "JJ"))) (re.++ (re.+ (re.+ (str.to.re "KKK"))) (re.++ (re.* (re.union (str.to.re "L") (str.to.re "M"))) (re.++ (re.* (re.union (str.to.re "NNN") (str.to.re "O"))) (re.++ (re.+ (re.* (str.to.re "PPP"))) (re.++ (re.* (re.* (str.to.re "Q"))) (re.++ (re.* (re.+ (str.to.re "RRR"))) (re.++ (re.+ (re.+ (str.to.re "SS"))) (re.++ (re.union (re.union (str.to.re "TTT") (str.to.re "UUU")) (re.union (str.to.re "VVV") (str.to.re "WWW"))) (re.++ (re.+ (re.* (str.to.re "XX"))) (re.++ (re.+ (re.* (str.to.re "YYY"))) (re.++ (re.+ (re.* (str.to.re "Z"))) (re.++ (re.+ (re.* (str.to.re "!!"))) (re.++ (re.* (re.* (str.to.re """"""""))) (re.++ (re.+ (re.union (str.to.re "##") (str.to.re "$$$"))) (re.++ (re.* (re.+ (str.to.re "%%%"))) (re.++ (re.union (re.+ (str.to.re "&&&")) (re.+ (str.to.re "''"))) (re.++ (re.* (re.* (str.to.re "("))) (re.++ (re.union (re.union (str.to.re "))") (str.to.re "*")) (re.union (str.to.re "+") (str.to.re ","))) (re.++ (re.+ (re.+ (str.to.re "-"))) (re.++ (re.* (re.* (str.to.re "..."))) (re.++ (re.+ (re.* (str.to.re "///"))) (re.++ (re.+ (re.union (str.to.re "::") (str.to.re ";"))) (re.++ (re.union (re.+ (str.to.re "<")) (re.+ (str.to.re "=="))) (re.++ (re.+ (re.* (str.to.re ">>>"))) (re.++ (re.* (re.+ (str.to.re "??"))) (re.++ (re.* (re.* (str.to.re "@@"))) (re.++ (re.+ (re.union (str.to.re "[[[") (str.to.re "\\\\"))) (re.++ (re.* (re.union (str.to.re "]") (str.to.re "^^"))) (re.++ (re.* (re.+ (str.to.re "__"))) (re.++ (re.+ (re.* (str.to.re "``"))) (re.++ (re.union (re.* (str.to.re "{{")) (re.* (str.to.re "||"))) (re.++ (re.* (re.union (str.to.re "}}}") (str.to.re "~"))) (re.++ (re.union (re.union (str.to.re "0") (str.to.re "11")) (re.union (str.to.re "22") (str.to.re "33"))) (re.++ (re.+ (re.+ (str.to.re "444"))) (re.++ (re.* (re.union (str.to.re "555") (str.to.re "666"))) (re.++ (re.union (re.+ (str.to.re "777")) (re.+ (str.to.re "88"))) (re.++ (re.union (re.union (str.to.re "99") (str.to.re "a")) (re.union (str.to.re "bbb") (str.to.re "c"))) (re.++ (re.+ (re.union (str.to.re "d") (str.to.re "e"))) (re.++ (re.+ (re.+ (str.to.re "ff"))) (re.++ (re.* (re.* (str.to.re "g"))) (re.++ (re.union (re.* (str.to.re "h")) (re.* (str.to.re "iii"))) (re.++ (re.union (re.union (str.to.re "jj") (str.to.re "kkk")) (re.union (str.to.re "l") (str.to.re "m"))) (re.++ (re.+ (re.union (str.to.re "nn") (str.to.re "o"))) (re.++ (re.union (re.* (str.to.re "ppp")) (re.* (str.to.re "qq"))) (re.++ (re.union (re.* (str.to.re "rrr")) (re.* (str.to.re "ss"))) (re.++ (re.+ (re.* (str.to.re "ttt"))) (re.++ (re.* (re.* (str.to.re "uu"))) (re.++ (re.union (re.+ (str.to.re "v")) (re.+ (str.to.re "ww"))) (re.++ (re.union (re.union (str.to.re "xxx") (str.to.re "yy")) (re.union (str.to.re "z") (str.to.re "A"))) (re.++ (re.+ (re.union (str.to.re "BB") (str.to.re "CCC"))) (re.++ (re.union (re.union (str.to.re "DD") (str.to.re "EE")) (re.union (str.to.re "FFF") (str.to.re "GGG"))) (re.++ (re.+ (re.union (str.to.re "HHH") (str.to.re "II"))) (re.++ (re.* (re.* (str.to.re "JJJ"))) (re.++ (re.* (re.+ (str.to.re "K"))) (re.++ (re.+ (re.+ (str.to.re "LLL"))) (re.++ (re.* (re.* (str.to.re "M"))) (re.++ (re.union (re.+ (str.to.re "NN")) (re.+ (str.to.re "OO"))) (re.++ (re.+ (re.* (str.to.re "PP"))) (re.++ (re.+ (re.union (str.to.re "QQ") (str.to.re "R"))) (re.++ (re.+ (re.* (str.to.re "SSS"))) (re.++ (re.* (re.* (str.to.re "TT"))) (re.++ (re.union (re.+ (str.to.re "U")) (re.+ (str.to.re "V"))) (re.++ (re.+ (re.union (str.to.re "W") (str.to.re "XX"))) (re.++ (re.union (re.union (str.to.re "Y") (str.to.re "ZZZ")) (re.union (str.to.re "!") (str.to.re """"""))) (re.++ (re.+ (re.union (str.to.re "##") (str.to.re "$$$"))) (re.++ (re.union (re.* (str.to.re "%%")) (re.* (str.to.re "&&&"))) (re.++ (re.union (re.+ (str.to.re "'''")) (re.+ (str.to.re "((("))) (re.++ (re.* (re.+ (str.to.re ")"))) (re.++ (re.* (re.* (str.to.re "*"))) (re.++ (re.* (re.+ (str.to.re "++"))) (re.++ (re.+ (re.union (str.to.re ",") (str.to.re "-"))) (re.++ (re.* (re.* (str.to.re "."))) (re.++ (re.* (re.union (str.to.re "///") (str.to.re "::"))) (re.++ (re.+ (re.* (str.to.re ";"))) (re.++ (re.+ (re.* (str.to.re "<<"))) (re.++ (re.+ (re.union (str.to.re "==") (str.to.re ">>>"))) (re.++ (re.* (re.* (str.to.re "??"))) (re.++ (re.union (re.+ (str.to.re "@")) (re.+ (str.to.re "[[["))) (re.++ (re.+ (re.union (str.to.re "\\") (str.to.re "]]]"))) (re.++ (re.+ (re.union (str.to.re "^^^") (str.to.re "_"))) (re.++ (re.union (re.+ (str.to.re "`")) (re.+ (str.to.re "{"))) (re.++ (re.union (re.* (str.to.re "||")) (re.* (str.to.re "}}}"))) (re.++ (re.* (re.* (str.to.re "~"))) (re.++ (re.union (re.+ (str.to.re "00")) (re.+ (str.to.re "1"))) (re.++ (re.* (re.union (str.to.re "222") (str.to.re "33"))) (re.++ (re.+ (re.union (str.to.re "444") (str.to.re "55"))) (re.++ (re.union (re.+ (str.to.re "6")) (re.+ (str.to.re "7"))) (re.++ (re.union (re.union (str.to.re "8") (str.to.re "9")) (re.union (str.to.re "aa") (str.to.re "b"))) (re.++ (re.* (re.union (str.to.re "cc") (str.to.re "ddd"))) (re.++ (re.+ (re.+ (str.to.re "ee"))) (re.++ (re.+ (re.+ (str.to.re "f"))) (re.++ (re.+ (re.* (str.to.re "ggg"))) (re.++ (re.union (re.+ (str.to.re "hhh")) (re.+ (str.to.re "iii"))) (re.++ (re.union (re.* (str.to.re "j")) (re.* (str.to.re "kk"))) (re.++ (re.* (re.union (str.to.re "ll") (str.to.re "mm"))) (re.union (re.+ (str.to.re "n")) (re.+ (str.to.re "oo"))))))))))))))))))))))))))))))))))))))))))))))))))))))))))))))))))))))))))))))))))))))))))))))))))))))))))))))))))))))))))))
(check-sat)